job_count = 34 ;
duration = [|14, 7|17, 4|11, 9|7, 9|10, 6|6, 9|10, 7|5, 8|3, 5|12, 4|18, 7|8, 1|8, 3|3, 3|15, 6|18, 9|5, 6|14, 3|2, 5|4, 1|18, 2|4, 9|3, 1|14, 2|15, 1|17, 6|4, 1|7, 1|18, 3|18, 5|18, 4|18, 8|5, 5|12, 9|] ;
machine_count = 2 ;
cost = [|12, 26|17, 22|19, 29|19, 26|14, 36|18, 27|15, 26|10, 38|11, 38|12, 21|17, 28|18, 34|18, 34|18, 22|17, 36|17, 35|19, 34|13, 20|11, 27|18, 24|16, 35|16, 37|17, 22|12, 23|16, 28|19, 26|13, 37|18, 39|18, 27|17, 22|10, 35|19, 30|12, 26|12, 37|] ;
deadline = [85, 85, 85, 85, 85, 85, 85, 85, 85, 85, 85, 85, 85, 85, 85, 85, 85, 85, 85, 85, 85, 85, 85, 85, 85, 85, 85, 85, 85, 85, 85, 85, 85, 85] ;
release = [0, 0, 0, 0, 0, 0, 0, 0, 0, 0, 0, 0, 0, 0, 0, 0, 0, 0, 0, 0, 0, 0, 0, 0, 0, 0, 0, 0, 0, 0, 0, 0, 0, 0] ;
resource = [|9, 9|7, 7|5, 5|7, 7|2, 2|1, 1|5, 5|9, 9|5, 5|7, 7|2, 2|2, 2|7, 7|5, 5|5, 5|8, 8|4, 4|1, 1|1, 1|7, 7|9, 9|5, 5|5, 5|7, 7|6, 6|2, 2|1, 1|2, 2|2, 2|7, 7|5, 5|8, 8|2, 2|7, 7|] ;
capacities = [10, 10] ;
